7869 5131 685
8225 4775 645
3968 8032 733
6232 6768 750
5526 7474 719
3595 7405 779
7657 4343 702
3989 8011 735
7180 5820 724
5358 6642 785
4443 7557 775
4834 7166 780
7081 4919 729
3084 7916 757
6287 5713 759
